letting n =  10
letting blocks =  [[1, 2], [1, 3], [1, 4], [1, 7], [1, 9], [1, 10], [2, 5], [2, 6], [2, 7], [2, 8], [2, 9], [2, 10], [3, 3], [3, 5], [3, 6], [3, 7], [3, 8], [3, 10], [4, 1], [4, 2], [4, 4], [4, 5], [4, 7], [4, 10], [5, 2], [5, 3], [5, 5], [5, 8], [5, 9], [6, 1], [6, 2], [6, 4], [6, 6], [6, 8], [6, 10], [7, 1], [7, 4], [7, 7], [7, 8], [7, 9], [8, 1], [8, 3], [8, 4], [8, 6], [8, 7], [8, 10], [9, 1], [9, 2], [9, 3], [9, 4], [9, 5], [9, 6], [10, 1], [10, 3], [10, 5], [10, 6], [10, 8], [10, 9]]
